1247634
0,4,34,97,100,33,51,28,58,83,50,1,80,45,93,106,15,24,62,19,43,42,84,60,31,94,5,29,102,55,73,91,3,66,78,22,14,21,99,52,16,79,47,20,12,92,95,41,59,105,107,77,32,54,67,39,7,27,35,11,64,87,6,17,49,75,72,18,61,86,104,98,70,46,101,53,57,103,96,88,90,10,48,30,38,13,69,68,26,85,74,56,71,37,40,25,36,8,76,65,9,63,23,108,89,2,82,44,81,0